####################################################################### 
# 
# This file contains crystal structure data downloaded from the 
# Cambridge Structural Database (CSD) hosted by the Cambridge 
# Crystallographic Data Centre (CCDC).
# 
# Full information about CCDC data access policies and citation 
# guidelines are available at http://www.ccdc.cam.ac.uk/access/V1 
# 
# Audit and citation data items may have been added by the CCDC. 
# Please retain this information to preserve the provenance of 
# this file and to allow appropriate attribution of the data. 
# 
#######################################################################

data_DEKSAN
#This CIF has been generated from an entry in the Cambridge Structural Database
_database_code_depnum_ccdc_archive 'CCDC 1138505'
_database_code_CSD               DEKSAN
loop_
_citation_id
_citation_doi
_citation_year
1 10.1002/hlca.19850680319 1985
_audit_creation_method           'Created from the CSD'
_audit_update_record             
;
2020-12-13 downloaded from the CCDC.
;
_database_code_NBS               561840
_chemical_name_common            cyclosporine
_chemical_formula_moiety         'C62 H111 N11 O12'
_chemical_name_systematic        'Cyclosporin A'
_chemical_properties_biological  
'immunosuppressive drug; cyclosporine was investigated in 2020 as a potential candidate to target COVID-19 (coronavirus).'
_chemical_absolute_configuration unk
_diffrn_ambient_temperature      295
_exptl_crystal_density_diffrn    1.012
#These two values have been output from a single CSD field.
_refine_ls_R_factor_gt           0.114
_refine_ls_wR_factor_gt          0.114
_diffrn_radiation_probe          x-ray
_symmetry_cell_setting           tetragonal
_symmetry_space_group_name_H-M   'P 41'
_symmetry_Int_Tables_number      76
_space_group_name_Hall           'P 4w'
loop_
_symmetry_equiv_pos_site_id
_symmetry_equiv_pos_as_xyz
1 x,y,z
2 -y,x,1/4+z
3 -x,-y,1/2+z
4 y,-x,3/4+z
_cell_length_a                   13.837(2)
_cell_length_b                   13.837(2)
_cell_length_c                   41.242(3)
_cell_angle_alpha                90
_cell_angle_beta                 90
_cell_angle_gamma                90
_cell_volume                     7896.3
_exptl_crystal_colour            colorless
_cell_formula_units_Z            4
loop_
_atom_site_label
_atom_site_type_symbol
_atom_site_fract_x
_atom_site_fract_y
_atom_site_fract_z
H1 H 0.75074 0.37293 0.72629
H2 H 0.41632 0.40274 0.68244
H3 H 0.52387 0.27902 0.66006
H4 H 0.43616 0.24969 0.63295
H5 H 0.44587 0.40836 0.61375
H6 H 0.54294 0.48471 0.66113
H7 H 0.63910 0.40657 0.65298
H8 H 0.60867 0.49686 0.62519
H9 H 0.52101 0.26864 0.58410
H10 H 0.59303 0.37153 0.57973
H11 H 0.62618 0.28118 0.60715
H12 H 0.12370 0.32618 0.64276
H13 H 0.04561 0.41244 0.70405
H14 H -0.09831 0.33024 0.69023
H15 H -0.06661 0.41461 0.66057
H16 H -0.04662 0.29158 0.65382
H17 H 0.03383 0.24255 0.72216
H18 H 0.08811 0.20380 0.68619
H19 H 0.15419 0.27212 0.71407
H20 H -0.01523 0.37310 0.59797
H21 H 0.06178 0.42669 0.56962
H22 H 0.10899 0.35106 0.59961
H23 H -0.22194 0.70185 0.56909
H24 H -0.29003 0.63844 0.59640
H25 H -0.34793 0.71001 0.56888
H26 H -0.24346 1.04511 0.64838
H27 H -0.26074 1.14459 0.62295
H28 H -0.34039 1.04675 0.62125
H29 H 0.23458 0.98887 0.68894
H30 H 0.29615 0.97191 0.65240
H31 H 0.18640 1.03432 0.65288
H32 H 0.46926 0.40421 0.80486
H33 H 0.35287 0.43841 0.79311
H34 H 0.39283 0.32039 0.78626
H35 H 0.38062 0.12259 0.67983
H36 H 0.30266 0.14575 0.71223
H37 H 0.27551 0.19004 0.67362
H38 H 0.25628 0.51438 0.69898
H39 H 0.18206 0.43290 0.71965
H40 H 0.30551 0.40924 0.71563
H41 H -0.04835 0.71243 0.63940
H42 H -0.10602 0.93827 0.63601
H43 H 0.14527 0.66524 0.69048
H44 H 0.34671 0.70720 0.73758
H45 H 0.03863 0.90062 0.57506
H46 H 0.21275 0.89968 0.53719
H47 H 0.15269 0.58027 0.53798
H48 H -0.01812 0.79276 0.51991
H49 H 0.05817 0.69745 0.50910
H50 H -0.06528 0.67464 0.51883
H51 H -0.27984 0.67468 0.72446
H52 H -0.31882 0.74673 0.69223
H53 H -0.33258 0.62135 0.69038
H54 H -0.35919 0.87020 0.57825
H55 H -0.34155 0.91060 0.61795
H56 H -0.09679 1.03826 0.57107
H57 H -0.15535 1.21745 0.60254
H58 H -0.06001 1.20149 0.57526
H59 H -0.26485 1.17755 0.56370
H60 H -0.24768 1.30902 0.53055
H61 H -0.21001 1.33457 0.57006
H62 H -0.12448 1.31472 0.53962
H63 H -0.18260 1.06609 0.53322
H64 H -0.22874 1.15898 0.50907
H65 H -0.10560 1.15582 0.51836
H66 H 0.06375 1.03333 0.66775
H67 H -0.07144 0.88884 0.69748
H68 H 0.01397 0.94038 0.74862
H69 H 0.09789 0.89587 0.72072
H70 H 0.08513 1.02042 0.72619
H71 H -0.16181 1.03905 0.68651
H72 H -0.14311 1.02451 0.72811
H73 H -0.07268 1.10649 0.70621
H74 H 0.19263 0.73700 0.64607
H75 H 0.31340 0.82336 0.61640
H76 H 0.37192 0.85087 0.65280
H77 H 0.38940 0.68844 0.66431
H78 H 0.51863 0.76542 0.63435
H79 H 0.51045 0.64379 0.62332
H80 H 0.46407 0.73307 0.59772
H81 H 0.25435 0.61101 0.63651
H82 H 0.30575 0.63722 0.59888
H83 H 0.36244 0.55558 0.62495
H84 H 0.17714 0.75879 0.75290
H85 H 0.05443 0.65606 0.77274
H86 H 0.01810 0.71081 0.73657
H87 H 0.05527 0.59014 0.73662
H88 H 0.39714 0.56534 0.78801
H89 H 0.55882 0.62700 0.78501
H90 H 0.51962 0.69569 0.74749
H91 H 0.47670 0.72129 0.78639
H92 H 0.52627 0.38148 0.71299
H93 H 0.55918 0.26381 0.77264
H94 H 0.62008 0.25285 0.73570
H95 H 0.60992 0.41075 0.77674
H96 H 0.70338 0.28731 0.80530
H97 H 0.77929 0.27313 0.77179
H98 H 0.78186 0.38041 0.79411
H99 H 0.65807 0.45868 0.72645
H100 H 0.75443 0.46942 0.75358
N1 N 0.183(1) 0.7065(9) 0.7065(3)
C1 C 0.167(1) 0.691(1) 0.7411(4)
C2 C 0.067(1) 0.660(2) 0.7472(5)
C3 C 0.242(1) 0.624(1) 0.7568(4)
O1 O 0.2189(9) 0.554(1) 0.7730(3)
N2 N 0.3333(9) 0.648(1) 0.7517(3)
C4 C 0.417(1) 0.596(1) 0.7651(4)
C5 C 0.499(1) 0.665(2) 0.7702(6)
C6 C 0.446(1) 0.515(1) 0.7428(4)
O2 O 0.4713(9) 0.5371(9) 0.7155(3)
N3 N 0.452(1) 0.424(1) 0.7543(3)
C7 C 0.414(2) 0.395(2) 0.7870(5)
C8 C 0.500(1) 0.348(1) 0.7346(4)
C9 C 0.587(2) 0.302(2) 0.7521(6)
C10 C 0.6599(2) 0.366(3) 0.763(1)
C11 C 0.737(3) 0.324(3) 0.785(1)
C12 C 0.708(3) 0.420(3) 0.741(2)
C13 C 0.430(1) 0.270(1) 0.7266(4)
O3 O 0.414(1) 0.203(1) 0.7461(3)
N4 N 0.387(1) 0.266(1) 0.6978(5)
C14 C 0.333(2) 0.174(1) 0.6903(5)
C15 C 0.393(1) 0.336(1) 0.6721(4)
C16 C 0.468(2) 0.307(2) 0.6468(6)
C17 C 0.506(2) 0.372(2) 0.6243(7)
C18 C 0.581(2) 0.446(2) 0.6425(9)
C19 C 0.567(3) 0.319(3) 0.5966(8)
C20 C 0.294(1) 0.351(1) 0.6566(4)
O4 O 0.280(1) 0.319(1) 0.6281(3)
N5 N 0.225(1) 0.388(1) 0.6737(3)
C21 C 0.243(1) 0.440(1) 0.7040(4)
C22 C 0.124(1) 0.382(1) 0.6607(4)
C23 C 0.051(2) 0.356(1) 0.6863(5)
C24 C -0.0477(2) 0.348(2) 0.6717(6)
C25 C 0.084(2) 0.261(2) 0.7035(6)
C26 C 0.0971 0.482(1) 0.6468(4)
O5 O 0.1012(8) 0.5546(8) 0.6641(4)
H101 H 0.07404 0.63406 0.61676
H102 H -0.00773 0.55896 0.55322
H103 H -0.03231 0.72909 0.57441
H104 H 0.12309 0.75570 0.59480
H105 H 0.17205 0.74326 0.55596
H106 H 0.20230 1.06430 0.53055
H107 H 0.07675 1.05489 0.53375
H108 H 0.14684 1.07181 0.56852
H109 H -0.23998 0.61823 0.63867
H110 H -0.16271 0.60264 0.69082
H111 H -0.14895 0.72807 0.69267
N6 N 0.067(1) 0.4864(9) 0.6156(3)
C27 C 0.055(2) 0.404(1) 0.5943(4)
C28 C 0.031(1) 0.580(1) 0.6050(4)
C29 C 0.043(1) 0.598(1) 0.5675(4)
O6 O 0.1398(9) 0.5694(9) 0.5603(3)
C30 C 0.027(1) 0.705(1) 0.5599(4)
C31 C -0.001(2) 0.718(2) 0.5243(5)
C32 C 0.110(2) 0.7667(2) 0.5696(5)
C33 C 0.100(2) 0.870(2) 0.5643(5)
C34 C 0.153(2) 0.930(2) 0.5491(6)
C35 C 0.144(2) 1.038(2) 0.5452(8)
C36 C -0.075(1) 0.589(1) 0.6147(4)
O7 O -0.1318(9) 0.5280(9) 0.6042(3)
N7 N -0.1000(9) 0.6625(9) 0.6338(3)
C37 C -0.194(1) 0.675(1) 0.6467(3)
C38 C -0.193(1) 0.671(1) 0.6838(4)
C39 C -0.287(2) 0.679(2) 0.6987(7)
C40 C -0.232(1) 0.771(1) 0.6347(4)
O8 O -0.2156(8) 0.8472(9) 0.6507(3)
N8 N -0.2807(9) 0.779(1) 0.6073(3)
C41 C -0.285(1) 0.701(1) 0.5839(4)
C42 C -0.308(1) 0.875(1) 0.5978(4)
C43 C -0.224(1) 0.932(1) 0.5871(4)
O9 O -0.1687(9) 0.8977(9) 0.5666(3)
N9 N -0.2053(9) 1.0215(9) 0.5998(3)
C44 C -0.267(1) 1.068(2) 0.6248(5)
C45 C -0.121(1) 1.074(1) 0.5927(4)
C46 C -0.130(2) 1.177(1) 0.5821(5)
C47 C -0.194(2) 1.198(1) 0.5556(6)
C48 C -0.194(3) 1.294(2) 0.5486(8)
C49 C -0.177(3) 1.141(2) 0.5273(6)
C50 C -0.044(1) 1.063(1) 0.6200(4)
O10 O 0.023(1) 1.123(1) 0.6223(4)
N10 N -0.0512(9) 0.986(1) 0.6395(3)
C51 C 0.019(1) 0.970(1) 0.6661(4)
C52 C -0.02(1) 0.955(1) 0.6982(4)
C53 C 0.048(2) 0.953(2) 0.7256(5)
C54 C -0.109(1) 1.038(1) 0.7053(5)
C55 C 0.080(1) 0.881(1) 0.6589(4)
O11 O 0.0377(8) 0.8034(7) 0.6544(3)
N11 N 0.1753(9) 0.8867(9) 0.6585(3)
C56 C 0.226(1) 0.976(1) 0.6635(6)
C57 C 0.231(1) 0.793(1) 0.6586(4)
C58 C 0.327(1) 0.799(1) 0.6406(5)
C59 C 0.379(1) 0.705(2) 0.6392(6)
C60 C 0.475(2) 0.712(2) 0.6225(8)
C61 C 0.321(2) 0.621(2) 0.6237(6)
C62 C 0.245(1) 0.771(1) 0.6946(4)
O12 O 0.3031(9) 0.8158(8) 0.7113(3)

#END
